-225.0 2.0 8.0 4.0 7.0 8.0 7.0 10.0 8.0 0.0 7.0 10.0 6.0 1.0 10.0 7.0 0.0 8.0 3.0 9.0 9.0 10.0 10.0 9.0 10.0 10.0 8.0 2.0 4.0 10.0 7.0 8.0 3.0 2.0 8.0 0.0 
2.0 -166.0 3.0 5.0 10.0 7.0 7.0 5.0 1.0 7.0 8.0 3.0 2.0 5.0 8.0 10.0 6.0 2.0 3.0 9.0 8.0 6.0 1.0 5.0 9.0 2.0 10.0 4.0 5.0 5.0 8.0 0.0 0.0 0.0 0.0 0.0 
8.0 3.0 -192.0 4.0 8.0 9.0 4.0 10.0 8.0 10.0 0.0 5.0 0.0 3.0 9.0 6.0 10.0 3.0 2.0 1.0 5.0 3.0 3.0 5.0 10.0 8.0 0.0 9.0 3.0 3.0 8.0 6.0 8.0 9.0 6.0 3.0 
4.0 5.0 4.0 -137.0 1.0 0.0 0.0 7.0 3.0 0.0 3.0 1.0 5.0 3.0 2.0 4.0 2.0 8.0 8.0 6.0 9.0 7.0 10.0 4.0 9.0 0.0 7.0 2.0 0.0 1.0 6.0 1.0 5.0 2.0 4.0 4.0 
7.0 10.0 8.0 1.0 -145.0 6.0 3.0 1.0 1.0 2.0 8.0 2.0 1.0 6.0 0.0 2.0 0.0 1.0 3.0 3.0 1.0 6.0 10.0 1.0 4.0 1.0 10.0 3.0 10.0 5.0 3.0 9.0 3.0 3.0 4.0 7.0 
8.0 7.0 9.0 0.0 6.0 -183.0 7.0 6.0 7.0 6.0 3.0 0.0 8.0 6.0 3.0 0.0 2.0 2.0 6.0 10.0 10.0 8.0 5.0 3.0 6.0 0.0 4.0 3.0 5.0 7.0 4.0 9.0 6.0 6.0 1.0 10.0 
7.0 7.0 4.0 0.0 3.0 7.0 -174.0 4.0 4.0 5.0 5.0 9.0 1.0 10.0 4.0 3.0 6.0 0.0 10.0 5.0 10.0 6.0 2.0 1.0 5.0 10.0 7.0 4.0 10.0 5.0 6.0 3.0 3.0 6.0 2.0 0.0 
10.0 5.0 10.0 7.0 1.0 6.0 4.0 -181.0 7.0 6.0 10.0 5.0 5.0 3.0 6.0 7.0 2.0 9.0 6.0 4.0 9.0 0.0 5.0 10.0 2.0 2.0 0.0 9.0 1.0 3.0 6.0 8.0 1.0 9.0 2.0 1.0 
8.0 1.0 8.0 3.0 1.0 7.0 4.0 7.0 -182.0 6.0 2.0 2.0 8.0 10.0 10.0 10.0 4.0 7.0 0.0 5.0 5.0 0.0 0.0 1.0 3.0 7.0 8.0 8.0 9.0 4.0 8.0 7.0 8.0 2.0 2.0 7.0 
0.0 7.0 10.0 0.0 2.0 6.0 5.0 6.0 6.0 -160.0 8.0 1.0 4.0 8.0 9.0 2.0 2.0 4.0 1.0 6.0 0.0 4.0 7.0 9.0 0.0 1.0 5.0 9.0 9.0 0.0 4.0 6.0 0.0 0.0 9.0 10.0 
7.0 8.0 0.0 3.0 8.0 3.0 5.0 10.0 2.0 8.0 -178.0 6.0 5.0 2.0 10.0 10.0 1.0 9.0 5.0 1.0 1.0 0.0 10.0 0.0 9.0 4.0 9.0 8.0 5.0 1.0 4.0 5.0 3.0 1.0 9.0 6.0 
10.0 3.0 5.0 1.0 2.0 0.0 9.0 5.0 2.0 1.0 6.0 -171.0 2.0 6.0 3.0 0.0 7.0 10.0 5.0 0.0 10.0 2.0 2.0 9.0 0.0 5.0 1.0 7.0 7.0 6.0 5.0 10.0 6.0 8.0 6.0 10.0 
6.0 2.0 0.0 5.0 1.0 8.0 1.0 5.0 8.0 4.0 5.0 2.0 -179.0 8.0 10.0 5.0 4.0 4.0 9.0 6.0 10.0 8.0 3.0 7.0 2.0 8.0 7.0 7.0 8.0 5.0 1.0 5.0 0.0 5.0 2.0 8.0 
1.0 5.0 3.0 3.0 6.0 6.0 10.0 3.0 10.0 8.0 2.0 6.0 8.0 -170.0 2.0 6.0 1.0 9.0 3.0 3.0 2.0 6.0 2.0 6.0 10.0 7.0 2.0 7.0 1.0 6.0 6.0 0.0 1.0 8.0 8.0 3.0 
10.0 8.0 9.0 2.0 0.0 3.0 4.0 6.0 10.0 9.0 10.0 3.0 10.0 2.0 -185.0 10.0 0.0 0.0 4.0 10.0 9.0 10.0 2.0 5.0 5.0 0.0 10.0 10.0 5.0 4.0 2.0 2.0 2.0 2.0 0.0 7.0 
7.0 10.0 6.0 4.0 2.0 0.0 3.0 7.0 10.0 2.0 10.0 0.0 5.0 6.0 10.0 -182.0 0.0 5.0 10.0 7.0 0.0 3.0 8.0 3.0 8.0 8.0 1.0 9.0 9.0 0.0 5.0 1.0 8.0 5.0 10.0 0.0 
0.0 6.0 10.0 2.0 0.0 2.0 6.0 2.0 4.0 2.0 1.0 7.0 4.0 1.0 0.0 0.0 -149.0 4.0 1.0 10.0 7.0 10.0 4.0 7.0 6.0 8.0 0.0 6.0 7.0 7.0 2.0 5.0 0.0 6.0 2.0 10.0 
8.0 2.0 3.0 8.0 1.0 2.0 0.0 9.0 7.0 4.0 9.0 10.0 4.0 9.0 0.0 5.0 4.0 -182.0 2.0 4.0 2.0 7.0 5.0 1.0 6.0 8.0 8.0 7.0 7.0 8.0 4.0 7.0 8.0 3.0 10.0 0.0 
3.0 3.0 2.0 8.0 3.0 6.0 10.0 6.0 0.0 1.0 5.0 5.0 9.0 3.0 4.0 10.0 1.0 2.0 -177.0 5.0 10.0 5.0 9.0 7.0 8.0 1.0 9.0 5.0 0.0 4.0 7.0 4.0 3.0 6.0 5.0 8.0 
9.0 9.0 1.0 6.0 3.0 10.0 5.0 4.0 5.0 6.0 1.0 0.0 6.0 3.0 10.0 7.0 10.0 4.0 5.0 -192.0 4.0 2.0 9.0 9.0 8.0 5.0 1.0 7.0 10.0 5.0 6.0 0.0 3.0 5.0 5.0 9.0 
9.0 8.0 5.0 9.0 1.0 10.0 10.0 9.0 5.0 0.0 1.0 10.0 10.0 2.0 9.0 0.0 7.0 2.0 10.0 4.0 -186.0 3.0 0.0 8.0 6.0 3.0 8.0 0.0 4.0 3.0 2.0 4.0 4.0 8.0 6.0 6.0 
10.0 6.0 3.0 7.0 6.0 8.0 6.0 0.0 0.0 4.0 0.0 2.0 8.0 6.0 10.0 3.0 10.0 7.0 5.0 2.0 3.0 -177.0 3.0 10.0 9.0 4.0 7.0 6.0 4.0 4.0 4.0 7.0 0.0 5.0 0.0 8.0 
10.0 1.0 3.0 10.0 10.0 5.0 2.0 5.0 0.0 7.0 10.0 2.0 3.0 2.0 2.0 8.0 4.0 5.0 9.0 9.0 0.0 3.0 -170.0 4.0 0.0 3.0 10.0 2.0 1.0 2.0 7.0 9.0 5.0 3.0 10.0 4.0 
9.0 5.0 5.0 4.0 1.0 3.0 1.0 10.0 1.0 9.0 0.0 9.0 7.0 6.0 5.0 3.0 7.0 1.0 7.0 9.0 8.0 10.0 4.0 -189.0 10.0 3.0 0.0 9.0 9.0 2.0 6.0 10.0 1.0 7.0 7.0 1.0 
10.0 9.0 10.0 9.0 4.0 6.0 5.0 2.0 3.0 0.0 9.0 0.0 2.0 10.0 5.0 8.0 6.0 6.0 8.0 8.0 6.0 9.0 0.0 10.0 -188.0 7.0 6.0 1.0 9.0 6.0 0.0 0.0 7.0 2.0 2.0 3.0 
10.0 2.0 8.0 0.0 1.0 0.0 10.0 2.0 7.0 1.0 4.0 5.0 8.0 7.0 0.0 8.0 8.0 8.0 1.0 5.0 3.0 4.0 3.0 3.0 7.0 -163.0 6.0 4.0 8.0 9.0 8.0 2.0 1.0 8.0 2.0 0.0 
8.0 10.0 0.0 7.0 10.0 4.0 7.0 0.0 8.0 5.0 9.0 1.0 7.0 2.0 10.0 1.0 0.0 8.0 9.0 1.0 8.0 7.0 10.0 0.0 6.0 6.0 -186.0 6.0 5.0 9.0 1.0 8.0 2.0 4.0 3.0 4.0 
2.0 4.0 9.0 2.0 3.0 3.0 4.0 9.0 8.0 9.0 8.0 7.0 7.0 7.0 10.0 9.0 6.0 7.0 5.0 7.0 0.0 6.0 2.0 9.0 1.0 4.0 6.0 -200.0 6.0 0.0 6.0 7.0 9.0 3.0 6.0 9.0 
4.0 5.0 3.0 0.0 10.0 5.0 10.0 1.0 9.0 9.0 5.0 7.0 8.0 1.0 5.0 9.0 7.0 7.0 0.0 10.0 4.0 4.0 1.0 9.0 9.0 8.0 5.0 6.0 -203.0 9.0 4.0 10.0 9.0 5.0 1.0 4.0 
10.0 5.0 3.0 1.0 5.0 7.0 5.0 3.0 4.0 0.0 1.0 6.0 5.0 6.0 4.0 0.0 7.0 8.0 4.0 5.0 3.0 4.0 2.0 2.0 6.0 9.0 9.0 0.0 9.0 -175.0 0.0 8.0 8.0 7.0 10.0 9.0 
7.0 8.0 8.0 6.0 3.0 4.0 6.0 6.0 8.0 4.0 4.0 5.0 1.0 6.0 2.0 5.0 2.0 4.0 7.0 6.0 2.0 4.0 7.0 6.0 0.0 8.0 1.0 6.0 4.0 0.0 -150.0 0.0 2.0 1.0 0.0 7.0 
8.0 0.0 6.0 1.0 9.0 9.0 3.0 8.0 7.0 6.0 5.0 10.0 5.0 0.0 2.0 1.0 5.0 7.0 4.0 0.0 4.0 7.0 9.0 10.0 0.0 2.0 8.0 7.0 10.0 8.0 0.0 -173.0 3.0 7.0 2.0 0.0 
3.0 0.0 8.0 5.0 3.0 6.0 3.0 1.0 8.0 0.0 3.0 6.0 0.0 1.0 2.0 8.0 0.0 8.0 3.0 3.0 4.0 0.0 5.0 1.0 7.0 1.0 2.0 9.0 9.0 8.0 2.0 3.0 -137.0 9.0 6.0 0.0 
2.0 0.0 9.0 2.0 3.0 6.0 6.0 9.0 2.0 0.0 1.0 8.0 5.0 8.0 2.0 5.0 6.0 3.0 6.0 5.0 8.0 5.0 3.0 7.0 2.0 8.0 4.0 3.0 5.0 7.0 1.0 7.0 9.0 -171.0 5.0 9.0 
8.0 0.0 6.0 4.0 4.0 1.0 2.0 2.0 2.0 9.0 9.0 6.0 2.0 8.0 0.0 10.0 2.0 10.0 5.0 5.0 6.0 0.0 10.0 7.0 2.0 2.0 3.0 6.0 1.0 10.0 0.0 2.0 6.0 5.0 -163.0 8.0 
0.0 0.0 3.0 4.0 7.0 10.0 0.0 1.0 7.0 10.0 6.0 10.0 8.0 3.0 7.0 0.0 10.0 0.0 8.0 9.0 6.0 8.0 4.0 1.0 3.0 0.0 4.0 9.0 4.0 9.0 7.0 0.0 0.0 9.0 8.0 -175.0 

